c FILE: i160-334

c SOURCE: From steinlib

c DESCRIPTION: Steinlib instance with 160 nodes and 320 edges.

p edge 160 320
e 1 13
e 1 36
e 1 54
e 1 61
e 1 112
e 1 120
e 1 138
e 1 140
e 2 43
e 2 135
e 3 21
e 3 35
e 4 15
e 4 58
e 4 69
e 4 144
e 4 146
e 5 72
e 5 112
e 5 151
e 6 22
e 6 34
e 6 39
e 6 96
e 7 25
e 7 49
e 7 85
e 7 102
e 7 110
e 7 118
e 7 125
e 8 18
e 8 41
e 8 55
e 8 59
e 8 85
e 8 113
e 8 139
e 9 51
e 9 85
e 9 98
e 9 108
e 9 154
e 10 42
e 10 92
e 10 93
e 11 14
e 11 46
e 11 49
e 11 88
e 11 136
e 11 144
e 12 19
e 12 33
e 12 131
e 12 160
e 13 57
e 13 59
e 13 63
e 13 121
e 13 139
e 13 144
e 14 17
e 14 22
e 14 85
e 15 36
e 15 65
e 15 94
e 16 32
e 16 93
e 17 28
e 17 54
e 17 100
e 18 20
e 18 26
e 18 53
e 19 66
e 19 92
e 19 95
e 19 101
e 19 108
e 19 121
e 19 154
e 20 77
e 20 94
e 21 58
e 21 61
e 21 131
e 21 148
e 22 142
e 23 107
e 23 154
e 24 25
e 24 30
e 24 72
e 24 131
e 24 150
e 24 158
e 25 91
e 25 128
e 25 147
e 26 36
e 26 38
e 26 149
e 27 76
e 27 114
e 27 115
e 27 122
e 28 146
e 29 115
e 29 117
e 29 124
e 30 43
e 30 90
e 30 102
e 30 112
e 31 45
e 31 49
e 31 51
e 31 135
e 32 94
e 32 105
e 32 108
e 32 115
e 32 155
e 33 60
e 33 154
e 33 158
e 34 153
e 35 52
e 35 77
e 35 78
e 35 120
e 37 72
e 37 88
e 38 144
e 38 153
e 38 160
e 39 121
e 39 134
e 40 52
e 40 53
e 40 122
e 40 123
e 40 155
e 40 156
e 41 57
e 41 122
e 41 126
e 41 152
e 42 66
e 42 96
e 42 110
e 42 145
e 42 157
e 43 134
e 44 100
e 45 68
e 45 150
e 46 72
e 46 90
e 46 93
e 46 118
e 46 146
e 46 158
e 47 54
e 47 97
e 47 100
e 47 159
e 48 80
e 49 70
e 49 81
e 49 93
e 49 109
e 49 137
e 50 60
e 50 65
e 50 132
e 50 151
e 51 76
e 51 99
e 51 146
e 54 79
e 54 135
e 55 79
e 56 69
e 56 79
e 56 125
e 57 58
e 57 118
e 57 129
e 58 71
e 58 112
e 58 125
e 58 136
e 58 149
e 58 155
e 59 65
e 59 69
e 60 70
e 60 92
e 60 129
e 60 132
e 61 78
e 61 97
e 61 114
e 62 75
e 62 140
e 62 154
e 63 73
e 63 88
e 64 121
e 65 99
e 66 117
e 66 118
e 66 146
e 67 81
e 67 134
e 68 153
e 68 156
e 69 127
e 71 85
e 71 115
e 71 134
e 72 96
e 72 118
e 74 106
e 74 158
e 75 90
e 76 86
e 77 112
e 77 135
e 78 118
e 78 119
e 78 145
e 79 117
e 80 95
e 80 99
e 80 144
e 81 126
e 81 130
e 81 142
e 82 132
e 83 119
e 84 137
e 85 95
e 85 120
e 85 121
e 85 144
e 86 102
e 86 110
e 87 158
e 88 89
e 88 92
e 88 145
e 89 111
e 89 121
e 90 104
e 91 158
e 92 103
e 92 142
e 93 112
e 94 125
e 95 146
e 96 101
e 96 112
e 96 127
e 97 103
e 97 106
e 97 132
e 101 127
e 101 128
e 101 151
e 102 107
e 102 128
e 103 116
e 103 159
e 103 160
e 105 136
e 107 137
e 109 110
e 110 118
e 111 155
e 112 130
e 112 132
e 112 137
e 112 152
e 114 120
e 114 141
e 115 143
e 115 158
e 118 124
e 118 134
e 118 151
e 119 125
e 119 155
e 120 134
e 121 156
e 123 139
e 124 131
e 125 145
e 127 146
e 127 153
e 130 149
e 132 153
e 133 136
e 133 156
e 134 151
e 135 139
e 135 141
e 135 149
e 135 159
e 137 141
e 139 141
e 140 153
e 142 149
e 143 145
e 145 146
e 147 158
e 154 156
